; PUSH 0x03 PUSH 0x06 DUP2 LT ISZERO ISZERO => PUSH 0x03 PUSH 0x01
(set-option :produce-proofs true)
; 
(set-info :status unknown)
(declare-fun storage_t (Int (_ BitVec 256)) (_ BitVec 256))
(declare-fun storage_s (Int (_ BitVec 256)) (_ BitVec 256))
(declare-fun exc_halt_t (Int) Bool)
(declare-fun exc_halt_s (Int) Bool)
(declare-fun stack_t (Int (_ BitVec 6)) (_ BitVec 256))
(declare-fun stack_s (Int (_ BitVec 6)) (_ BitVec 256))
(declare-fun sc_t (Int) (_ BitVec 6))
(declare-fun sc_s (Int) (_ BitVec 6))
(declare-fun used_gas_t (Int) Int)
(declare-fun used_gas_s (Int) Int)
(assert
 (let (($x7103 (forall ((w (_ BitVec 256)) )(let ((?x1851 (storage_t 2 w)))
 (let ((?x10146 (storage_s 6 w)))
 (= ?x10146 ?x1851))))
 ))
 (let (($x8194 (exc_halt_t 2)))
 (let (($x7121 (exc_halt_s 6)))
 (let (($x2649 (= $x7121 $x8194)))
 (let (($x8544 (forall ((n (_ BitVec 6)) )(let ((?x5791 (stack_t 2 n)))
 (let ((?x4278 (stack_s 6 n)))
 (let (($x5979 (= ?x4278 ?x5791)))
 (or (bvsle (sc_t 2) n) $x5979)))))
 ))
 (let ((?x6535 (sc_t 2)))
 (let ((?x9114 (sc_s 6)))
 (let (($x2614 (= ?x9114 ?x6535)))
 (let ((?x4434 (used_gas_t 0)))
 (let ((?x8967 (used_gas_s 0)))
 (let (($x7326 (= ?x8967 ?x4434)))
 (let (($x426 (forall ((w (_ BitVec 256)) )(let ((?x5229 (storage_t 0 w)))
 (let ((?x10983 (storage_s 0 w)))
 (= ?x10983 ?x5229))))
 ))
 (let (($x56 (exc_halt_t 0)))
 (let (($x57 (exc_halt_s 0)))
 (let (($x58 (= $x57 $x56)))
 (let (($x8619 (forall ((n (_ BitVec 6)) )(let ((?x4344 (stack_t 0 n)))
 (let ((?x1213 (stack_s 0 n)))
 (let (($x6727 (= ?x1213 ?x4344)))
 (let ((?x63 (sc_t 0)))
 (let (($x4809 (bvsle ?x63 n)))
 (or $x4809 $x6727)))))))
 ))
 (let ((?x63 (sc_t 0)))
 (let ((?x72 (sc_s 0)))
 (let (($x73 (= ?x72 ?x63)))
 (let (($x7008 (exc_halt_t 1)))
 (let (($x1552 (or $x7008 (not (= ((_ extract 6 6) (bvadd (_ bv1 7) (concat (_ bv0 1) (sc_t 1)))) (_ bv0 1))))))
 (let (($x3330 (forall ((w (_ BitVec 256)) )(let ((?x7300 (storage_t 1 w)))
 (let ((?x1851 (storage_t 2 w)))
 (= ?x1851 ?x7300))))
 ))
 (let (($x1957 (forall ((n (_ BitVec 6)) )(or (bvsle (sc_t 1) n) (= (stack_t 2 n) (stack_t 1 n))))
 ))
 (let (($x2089 (= $x7008 (or $x56 (not (= ((_ extract 6 6) (bvadd (_ bv1 7) (concat (_ bv0 1) ?x63))) (_ bv0 1)))))))
 (let (($x8273 (forall ((w (_ BitVec 256)) )(let ((?x5229 (storage_t 0 w)))
 (let ((?x7300 (storage_t 1 w)))
 (= ?x7300 ?x5229))))
 ))
 (let (($x3737 (forall ((n (_ BitVec 6)) )(let ((?x63 (sc_t 0)))
 (let (($x4809 (bvsle ?x63 n)))
 (or $x4809 (= (stack_t 1 n) (stack_t 0 n))))))
 ))
 (let (($x7912 (= $x7121 (or (exc_halt_s 5) (not (bvsle (_ bv0 6) (bvadd (_ bv63 6) (sc_s 5))))))))
 (let (($x10799 (forall ((w (_ BitVec 256)) )(let ((?x3925 (storage_s 5 w)))
 (let ((?x10146 (storage_s 6 w)))
 (= ?x10146 ?x3925))))
 ))
 (let (($x10434 (forall ((n (_ BitVec 6)) )(or (= (stack_s 6 n) (stack_s 5 n)) (bvsle (bvadd (_ bv63 6) (sc_s 5)) n)))
 ))
 (let (($x10576 (= (stack_s 6 (bvadd (_ bv63 6) ?x9114)) (ite (= (stack_s 5 (bvadd (_ bv63 6) (sc_s 5))) (_ bv0 256)) (_ bv1 256) (_ bv0 256)))))
 (let (($x1862 (exc_halt_s 5)))
 (let (($x3255 (= $x1862 (or (exc_halt_s 4) (not (bvsle (_ bv0 6) (bvadd (_ bv63 6) (sc_s 4))))))))
 (let (($x2891 (forall ((w (_ BitVec 256)) )(let ((?x10755 (storage_s 4 w)))
 (let ((?x3925 (storage_s 5 w)))
 (= ?x3925 ?x10755))))
 ))
 (let (($x3131 (forall ((n (_ BitVec 6)) )(or (= (stack_s 5 n) (stack_s 4 n)) (bvsle (bvadd (_ bv63 6) (sc_s 4)) n)))
 ))
 (let ((?x4319 (sc_s 5)))
 (let ((?x262 (bvadd (_ bv63 6) ?x4319)))
 (let ((?x9892 (stack_s 5 ?x262)))
 (let (($x11001 (= ?x9892 (ite (= (stack_s 4 (bvadd (_ bv63 6) (sc_s 4))) (_ bv0 256)) (_ bv1 256) (_ bv0 256)))))
 (let (($x9175 (exc_halt_s 4)))
 (let (($x874 (= $x9175 (or (exc_halt_s 3) (not (bvsle (_ bv0 6) (bvadd (_ bv62 6) (sc_s 3))))))))
 (let (($x3501 (forall ((w (_ BitVec 256)) )(let ((?x4115 (storage_s 3 w)))
 (let ((?x10755 (storage_s 4 w)))
 (= ?x10755 ?x4115))))
 ))
 (let (($x3943 (forall ((n (_ BitVec 6)) )(or (bvsle (bvadd (_ bv62 6) (sc_s 3)) n) (= (stack_s 4 n) (stack_s 3 n))))
 ))
 (let ((?x3851 (sc_s 3)))
 (let ((?x8926 (bvadd (_ bv63 6) ?x3851)))
 (let ((?x10534 (stack_s 3 ?x8926)))
 (let ((?x9433 (sc_s 4)))
 (let ((?x2904 (bvadd (_ bv63 6) ?x9433)))
 (let ((?x2286 (stack_s 4 ?x2904)))
 (let (($x11858 (= ?x2286 (ite (bvule (stack_s 3 (bvadd (_ bv62 6) ?x3851)) ?x10534) (_ bv0 256) (_ bv1 256)))))
 (let (($x10052 (exc_halt_s 2)))
 (let (($x3708 (or (not (= ((_ extract 6 6) (bvadd (_ bv1 7) (concat (_ bv0 1) (sc_s 2)))) (_ bv0 1))) (not (bvsle (_ bv0 6) (bvadd (_ bv62 6) (sc_s 2)))) $x10052)))
 (let (($x8103 (exc_halt_s 3)))
 (let (($x3321 (forall ((w (_ BitVec 256)) )(let ((?x6671 (storage_s 2 w)))
 (let ((?x4115 (storage_s 3 w)))
 (= ?x4115 ?x6671))))
 ))
 (let (($x5745 (forall ((n (_ BitVec 6)) )(or (bvsle (bvadd (_ bv62 6) (sc_s 2)) n) (= (stack_s 3 n) (stack_s 2 n))))
 ))
 (let (($x11721 (= (stack_s 3 (bvadd (_ bv63 6) (sc_s 2))) (stack_s 2 (bvadd (_ bv63 6) (sc_s 2))))))
 (let ((?x2272 (sc_s 2)))
 (let ((?x6884 (bvadd (_ bv62 6) ?x2272)))
 (let ((?x4616 (stack_s 2 ?x6884)))
 (let (($x8780 (exc_halt_s 1)))
 (let (($x5024 (or $x8780 (not (= ((_ extract 6 6) (bvadd (_ bv1 7) (concat (_ bv0 1) (sc_s 1)))) (_ bv0 1))))))
 (let (($x5224 (forall ((w (_ BitVec 256)) )(let ((?x2522 (storage_s 1 w)))
 (let ((?x6671 (storage_s 2 w)))
 (= ?x6671 ?x2522))))
 ))
 (let (($x8924 (forall ((n (_ BitVec 6)) )(or (= (stack_s 2 n) (stack_s 1 n)) (bvsle (sc_s 1) n)))
 ))
 (let (($x8019 (= $x8780 (or $x57 (not (= ((_ extract 6 6) (bvadd (_ bv1 7) (concat (_ bv0 1) ?x72))) (_ bv0 1)))))))
 (let (($x11373 (forall ((w (_ BitVec 256)) )(let ((?x10983 (storage_s 0 w)))
 (let ((?x2522 (storage_s 1 w)))
 (= ?x2522 ?x10983))))
 ))
 (let (($x6257 (forall ((n (_ BitVec 6)) )(or (= (stack_s 1 n) (stack_s 0 n)) (bvsle (sc_s 0) n)))
 ))
 (let (($x53 (forall ((w (_ BitVec 256)) )(let ((?x10983 (storage_s 0 w)))
 (= ?x10983 (_ bv0 256))))
 ))
 (let (($x7029 (= ?x8967 0)))
 (let (($x4825 (= ?x72 (_ bv0 6))))
 (and $x4825 (not $x57) $x7029 $x53 (= (stack_s 1 ?x72) (_ bv3 256)) (= (used_gas_s 1) (+ 3 ?x8967)) (= (sc_s 1) (bvadd (_ bv1 6) ?x72)) $x6257 $x11373 $x8019 (= (stack_s 2 (sc_s 1)) (_ bv6 256)) (= (used_gas_s 2) (+ 3 (used_gas_s 1))) (= ?x2272 (bvadd (_ bv1 6) (sc_s 1))) $x8924 $x5224 (= $x10052 $x5024) (= ?x10534 ?x4616) (= (stack_s 3 ?x6884) ?x4616) $x11721 (= (used_gas_s 3) (+ 3 (used_gas_s 2))) (= ?x3851 (bvadd (_ bv1 6) ?x2272)) $x5745 $x3321 (= $x8103 $x3708) $x11858 (= (used_gas_s 4) (+ 3 (used_gas_s 3))) (= ?x9433 ?x8926) $x3943 $x3501 $x874 $x11001 (= (used_gas_s 5) (+ 3 (used_gas_s 4))) (= ?x4319 ?x9433) $x3131 $x2891 $x3255 $x10576 (= (used_gas_s 6) (+ 3 (used_gas_s 5))) (= ?x9114 ?x4319) $x10434 $x10799 $x7912 (= (stack_t 1 ?x63) (_ bv3 256)) (= (used_gas_t 1) (+ 3 ?x4434)) (= (sc_t 1) (bvadd (_ bv1 6) ?x63)) $x3737 $x8273 $x2089 (= (stack_t 2 (sc_t 1)) (_ bv1 256)) (= (used_gas_t 2) (+ 3 (used_gas_t 1))) (= ?x6535 (bvadd (_ bv1 6) (sc_t 1))) $x1957 $x3330 (= $x8194 $x1552) $x73 $x8619 $x58 $x426 $x7326 (not (and $x2614 $x8544 $x2649 $x7103))))))))))))))))))))))))))))))))))))))))))))))))))))))))))))))))))))))))
(check-sat)
(get-proof)
